(declare-const z Real)
(assert (<= 0 z))
(declare-const y Real)
(assert (<= 0 y))
(declare-const x Real)
(assert (<= 0 x))
(assert (= (+ (+ x y) z) 1))
(assert (not (and (<= 0 (+ (+ (+ (* x y) (* y z)) (* z x)) (- (* (* (* 2 x) y) z)))) (<= (+ (+ (+ (* x y) (* y z)) (* z x)) (- (* (* (* 2 x) y) z))) (/ 7 27)))))
(check-sat)
(get-model)
(exit)